MST04
Position Depot: Random
Horizon for Depot: Small
Position of customers: Mixt
Distribution of the demand: Small
Width of time windows: Tight
Distribution of the service: Small

VEHICLE 
NUMBER 	 CAPACITY 
 10 	 	 76 
 
CUSTOMER
CUST NO. 	 XCOORD.  	 YCOORD. 	 DEMAND 	 READY TIME 	 DUE DATE 	 SERVICE TIME 
 0 	 	 619 	 	 663 	 	 0 	 	 0 	 	 1717 	 	 0 
  1 	 	 438 	 	 451 	 	 10 	 	 1387 	 	 1452 	 	 54 
  2 	 	 942 	 	 791 	 	 7 	 	 845 	 	 998 	 	 63 
  3 	 	 538 	 	 784 	 	 6 	 	 749 	 	 910 	 	 64 
  4 	 	 544 	 	 851 	 	 9 	 	 88 	 	 222 	 	 76 
  5 	 	 626 	 	 956 	 	 10 	 	 1125 	 	 1222 	 	 61 
  6 	 	 909 	 	 773 	 	 8 	 	 939 	 	 1138 	 	 58 
  7 	 	 571 	 	 605 	 	 6 	 	 1218 	 	 1316 	 	 87 
  8 	 	 409 	 	 500 	 	 7 	 	 174 	 	 292 	 	 66 
  9 	 	 379 	 	 436 	 	 9 	 	 667 	 	 805 	 	 93 
  10 	 	 430 	 	 836 	 	 8 	 	 818 	 	 982 	 	 97 
  11 	 	 306 	 	 492 	 	 6 	 	 698 	 	 762 	 	 88 
  12 	 	 484 	 	 445 	 	 6 	 	 1573 	 	 1717 	 	 94 
  13 	 	 948 	 	 840 	 	 10 	 	 1061 	 	 1172 	 	 70 
  14 	 	 609 	 	 808 	 	 10 	 	 1118 	 	 1202 	 	 81 
  15 	 	 401 	 	 470 	 	 7 	 	 220 	 	 320 	 	 62 
  16 	 	 586 	 	 734 	 	 10 	 	 689 	 	 857 	 	 62 
  17 	 	 976 	 	 810 	 	 7 	 	 237 	 	 424 	 	 63 
  18 	 	 492 	 	 802 	 	 9 	 	 785 	 	 915 	 	 50 
  19 	 	 677 	 	 842 	 	 7 	 	 415 	 	 477 	 	 79 
  20 	 	 953 	 	 752 	 	 10 	 	 686 	 	 814 	 	 84 
  21 	 	 354 	 	 217 	 	 8 	 	 1061 	 	 1205 	 	 95 
  22 	 	 521 	 	 474 	 	 8 	 	 144 	 	 234 	 	 94 
  23 	 	 414 	 	 709 	 	 6 	 	 465 	 	 593 	 	 71 
  24 	 	 492 	 	 790 	 	 8 	 	 669 	 	 866 	 	 97 
  25 	 	 478 	 	 489 	 	 9 	 	 799 	 	 969 	 	 67 
  26 	 	 567 	 	 871 	 	 10 	 	 723 	 	 834 	 	 99 
  27 	 	 389 	 	 436 	 	 6 	 	 1289 	 	 1389 	 	 63 
  28 	 	 490 	 	 510 	 	 5 	 	 563 	 	 748 	 	 94 
  29 	 	 458 	 	 696 	 	 7 	 	 769 	 	 952 	 	 67 
  30 	 	 944 	 	 844 	 	 5 	 	 842 	 	 1014 	 	 92 
  31 	 	 454 	 	 433 	 	 7 	 	 648 	 	 737 	 	 59 
  32 	 	 709 	 	 846 	 	 9 	 	 231 	 	 402 	 	 82 
  33 	 	 509 	 	 798 	 	 5 	 	 257 	 	 333 	 	 50 
  34 	 	 530 	 	 825 	 	 9 	 	 177 	 	 306 	 	 65 
  35 	 	 378 	 	 492 	 	 5 	 	 1496 	 	 1569 	 	 63 
  36 	 	 485 	 	 745 	 	 8 	 	 209 	 	 397 	 	 61 
  37 	 	 721 	 	 872 	 	 8 	 	 717 	 	 845 	 	 69 
  38 	 	 954 	 	 787 	 	 7 	 	 1563 	 	 1651 	 	 58 
  39 	 	 492 	 	 388 	 	 6 	 	 253 	 	 333 	 	 76 
  40 	 	 443 	 	 799 	 	 10 	 	 144 	 	 244 	 	 57 
  41 	 	 896 	 	 721 	 	 5 	 	 1298 	 	 1457 	 	 68 
  42 	 	 350 	 	 376 	 	 6 	 	 1514 	 	 1680 	 	 57 
  43 	 	 487 	 	 403 	 	 5 	 	 1332 	 	 1480 	 	 71 
  44 	 	 339 	 	 413 	 	 6 	 	 684 	 	 737 	 	 68 
  45 	 	 526 	 	 867 	 	 5 	 	 1320 	 	 1500 	 	 60 
  46 	 	 919 	 	 793 	 	 10 	 	 253 	 	 436 	 	 85 
  47 	 	 941 	 	 798 	 	 7 	 	 887 	 	 951 	 	 88 
  48 	 	 481 	 	 654 	 	 8 	 	 932 	 	 1004 	 	 63 
  49 	 	 888 	 	 803 	 	 6 	 	 568 	 	 648 	 	 71 
  50 	 	 443 	 	 433 	 	 9 	 	 408 	 	 537 	 	 69 
  51 	 	 416 	 	 930 	 	 10 	 	 186 	 	 383 	 	 81 
  52 	 	 826 	 	 893 	 	 10 	 	 150 	 	 340 	 	 92 
  53 	 	 250 	 	 477 	 	 9 	 	 902 	 	 1057 	 	 56 
  54 	 	 682 	 	 661 	 	 9 	 	 243 	 	 306 	 	 79 
  55 	 	 49 	 	 632 	 	 8 	 	 797 	 	 889 	 	 67 
  56 	 	 69 	 	 623 	 	 9 	 	 1521 	 	 1717 	 	 98 
  57 	 	 389 	 	 345 	 	 8 	 	 362 	 	 446 	 	 60 
  58 	 	 126 	 	 522 	 	 7 	 	 826 	 	 887 	 	 54 
  59 	 	 379 	 	 670 	 	 6 	 	 1511 	 	 1682 	 	 66 
  60 	 	 771 	 	 129 	 	 9 	 	 959 	 	 1125 	 	 100 
  61 	 	 555 	 	 577 	 	 6 	 	 -42 	 	 134 	 	 64 
  62 	 	 879 	 	 937 	 	 6 	 	 1346 	 	 1419 	 	 58 
  63 	 	 997 	 	 567 	 	 9 	 	 1035 	 	 1157 	 	 96 
  64 	 	 508 	 	 257 	 	 6 	 	 1396 	 	 1478 	 	 100 
  65 	 	 259 	 	 672 	 	 9 	 	 455 	 	 527 	 	 68 
  66 	 	 374 	 	 633 	 	 8 	 	 766 	 	 924 	 	 88 
  67 	 	 988 	 	 368 	 	 9 	 	 419 	 	 519 	 	 98 
  68 	 	 805 	 	 783 	 	 6 	 	 239 	 	 404 	 	 92 
  69 	 	 571 	 	 68 	 	 8 	 	 523 	 	 689 	 	 97 
  70 	 	 4 	 	 959 	 	 5 	 	 1512 	 	 1620 	 	 86 
  71 	 	 883 	 	 81 	 	 6 	 	 1067 	 	 1201 	 	 96 
  72 	 	 115 	 	 994 	 	 6 	 	 1533 	 	 1689 	 	 85 
  73 	 	 535 	 	 745 	 	 7 	 	 1581 	 	 1717 	 	 89 
  74 	 	 25 	 	 630 	 	 7 	 	 793 	 	 893 	 	 53 
  75 	 	 0 	 	 735 	 	 10 	 	 490 	 	 685 	 	 52 
  76 	 	 754 	 	 46 	 	 10 	 	 604 	 	 694 	 	 61 
  77 	 	 62 	 	 132 	 	 6 	 	 686 	 	 846 	 	 84 
  78 	 	 397 	 	 31 	 	 6 	 	 1537 	 	 1717 	 	 95 
  79 	 	 75 	 	 30 	 	 6 	 	 842 	 	 918 	 	 50 
  80 	 	 990 	 	 46 	 	 7 	 	 642 	 	 791 	 	 99 
  81 	 	 620 	 	 798 	 	 9 	 	 105 	 	 200 	 	 79 
  82 	 	 19 	 	 244 	 	 9 	 	 1128 	 	 1279 	 	 83 
  83 	 	 781 	 	 527 	 	 7 	 	 722 	 	 920 	 	 94 
  84 	 	 183 	 	 139 	 	 10 	 	 851 	 	 928 	 	 58 
  85 	 	 761 	 	 1000 	 	 8 	 	 759 	 	 844 	 	 53 
  86 	 	 103 	 	 374 	 	 5 	 	 550 	 	 650 	 	 72 
  87 	 	 395 	 	 122 	 	 9 	 	 520 	 	 644 	 	 60 
  88 	 	 265 	 	 744 	 	 9 	 	 217 	 	 399 	 	 88 
  89 	 	 994 	 	 68 	 	 8 	 	 697 	 	 773 	 	 52 
  90 	 	 885 	 	 620 	 	 10 	 	 221 	 	 296 	 	 59 
  91 	 	 992 	 	 790 	 	 5 	 	 753 	 	 863 	 	 52 
  92 	 	 377 	 	 439 	 	 5 	 	 782 	 	 833 	 	 90 
  93 	 	 770 	 	 902 	 	 5 	 	 1476 	 	 1555 	 	 85 
  94 	 	 529 	 	 418 	 	 6 	 	 1354 	 	 1424 	 	 81 
  95 	 	 697 	 	 416 	 	 9 	 	 1147 	 	 1233 	 	 71 
  96 	 	 621 	 	 256 	 	 5 	 	 1440 	 	 1593 	 	 51 
  97 	 	 705 	 	 257 	 	 10 	 	 559 	 	 647 	 	 84 
  98 	 	 649 	 	 807 	 	 6 	 	 488 	 	 610 	 	 81 
  99 	 	 68 	 	 940 	 	 6 	 	 590 	 	 678 	 	 100 
  100 	 	 748 	 	 406 	 	 9 	 	 1558 	 	 1659 	 	 53 
 